334 283 284 285 286 287 280 281 282 279 278 288 289 290 277 276 275 274 273 292 291 295 296 294 293 270 268 269 272 271 267 266 265 264 263 262 261 260 259 258 299 300 257 256 255 253 254 252 251 250 249 248 241 242 243 244 245 247 246 238 239 240 237 236 235 234 232 233 231 230 229 228 227 189 225 226 190 191 192 193 219 218 220 221 222 224 223 217 216 215 214 213 212 211 210 209 205 206 207 208 203 204 202 201 200 199 198 197 196 195 194 184 183 185 186 188 187 540 538 539 537 536 480 479 478 477 476 475 482 481 483 484 485 486 487 535 534 488 489 533 532 531 530 529 528 527 526 490 491 492 493 524 525 523 522 521 520 518 519 517 516 515 514 513 512 511 510 509 506 507 508 302 301 303 307 304 306 305 318 317 321 320 319 298 297 324 329 328 327 326 325 323 322 373 372 371 396 395 394 393 392 391 388 389 390 381 380 379 378 377 376 375 374 315 314 316 313 312 311 310 309 308 505 504 503 502 498 501 451 450 449 448 447 446 442 441 440 453 452 499 500 461 462 463 497 496 464 465 466 467 468 469 470 495 494 471 472 473 474 570 569 568 567 566 565 564 563 562 561 560 549 548 545 546 547 544 543 541 542 107 109 108 173 174 175 176 177 178 182 179 181 180 169 171 170 172 110 111 114 112 113 161 162 168 163 167 166 164 165 154 160 159 156 155 153 157 158 145 146 147 148 152 149 150 151 142 143 144 141 140 139 136 135 134 133 132 131 130 129 137 138 128 127 126 125 124 69 70 68 67 66 65 72 71 123 122 120 119 118 121 117 116 115 106 105 104 103 102 100 101 551 550 559 558 557 556 554 553 552 99 98 96 95 97 94 93 92 90 87 86 85 50 52 51 84 82 81 80 79 78 88 89 77 74 73 75 76 64 62 63 61 60 59 58 57 83 56 55 53 54 49 48 47 45 46 91 555 44 43 42 39 41 40 38 37 36 35 34 33 32 30 31 29 28 27 26 25 24 22 23 12 13 21 20 19 18 17 16 15 14 11 10 9 8 7 6 5 4 3 2 1 0 573 572 571 460 459 458 457 456 455 454 439 443 444 445 433 434 435 436 438 437 432 430 431 429 428 427 426 425 424 423 422 421 420 419 417 418 410 411 412 356 355 354 353 413 414 416 415 351 352 357 359 358 349 350 348 347 345 346 364 363 362 361 360 401 402 403 400 404 405 409 384 383 382 386 387 385 408 407 406 399 397 398 370 369 368 365 367 366 342 343 344 341 340 330 331 332 333 339 338 337 336 335